32 5 16 29 68 58 23 82 93 12 50 86 21 53 46 33 36 97 65 22 38 45 43 71 87 91 13 73 64 51 92 2 56 61 34 49 44 76 42 0 4 62 27 85 84 35 39 54 77 11 25 48 63 59 80 57 78 75 7 37 20 19 67 96 28 26 47 70 6 1 90 3 15 60 40 41 94 30 10 89 18 83 69 81 9 52 79 99 98 66 74 24 8 72 17 88 14 95 31 55